#=======================================================
# FHI-aims file: ./geometry.in
# Created using the Atomic Simulation Environment (ASE)
# Sun Jul  2 13:58:39 2023
#=======================================================
lattice_vector -0.0000034000000000 6.4845870400000001 6.4845888000000000 
lattice_vector 6.4845944800000002 0.0000045400000000 6.4845932399999997 
lattice_vector 6.4846015799999996 6.4845985600000002 0.0000063400000000 
atom_frac 0.0000027849999999 0.0000031600000002 0.9999972249999999 Cd
atom_frac 0.5000027849999999 0.0000031600000000 0.9999972250000000 Cd
atom_frac 0.0000027850000001 0.5000031600000000 0.9999972249999998 Cd
atom_frac 0.5000027849999996 0.5000031600000003 0.9999972249999995 Cd
atom_frac 0.0000027850000000 0.0000031600000000 0.4999972249999999 Cd
atom_frac 0.5000027849999998 0.0000031600000001 0.4999972249999999 Cd
atom_frac 0.0000027850000000 0.5000031600000001 0.4999972249999997 Cd
atom_frac 0.5000027849999998 0.5000031600000000 0.4999972249999999 Cd
atom_frac 0.3739067728779870 0.3749968399999999 0.3750027750000000 Te
atom_frac 0.8749972149999999 0.3749968400000002 0.3750027749999997 Te
atom_frac 0.3749972150000002 0.8749968400000004 0.3750027749999995 Te
atom_frac 0.8749972150000002 0.8749968400000003 0.3750027749999991 Te
atom_frac 0.3749972150000003 0.3749968399999999 0.8750027749999999 Te
atom_frac 0.8749972149999999 0.3749968400000002 0.8750027749999997 Te
atom_frac 0.3749972150000000 0.8749968400000003 0.8750027749999993 Te
atom_frac 0.8749972149999998 0.8749968400000003 0.8750027749999995 Te
