Cd Te                                   
   1.00000000000000     
    -0.0000017000000000    3.2422935200000000    3.2422944000000000
     3.2422972400000001    0.0000022700000000    3.2422966199999999
     3.2423007899999998    3.2422992800000001    0.0000031700000000
   Cd   Te
     1     1
Direct
  0.0000055699999990  0.0000063199999971  0.9999944500000026
  0.7499944300000010  0.7499936800000029  0.7500055499999974
 
  0.00000000E+00  0.00000000E+00  0.00000000E+00
  0.00000000E+00  0.00000000E+00  0.00000000E+00
