# 
# This is the geometry file that corresponds to the current relaxation step.
# If you do not want this file to be written, set the "write_restart_geometry" flag to .false.
#  aims_uuid : E757DA0F-1F91-45F2-AC3F-E5C82B74B805                                
# 
lattice_vector     -0.00000170      3.24229352      3.24229440
lattice_vector      3.24229724      0.00000227      3.24229662
lattice_vector      3.24230079      3.24229928      0.00000317
atom_frac       0.00000557      0.00000632     -0.00000555 Cd
atom_frac       0.74999443      0.74999368      0.75000555 Te
# 
# What follows is the current estimated Hessian matrix constructed by the BFGS algorithm.
# This is NOT the true Hessian matrix of the system.
# If you do not want this information here, switch it off using the "hessian_to_restart_geometry" keyword.
# 
trust_radius             0.2000000030
hessian_file
