# geometry.in for FHI-aims 
# | generated by phonopy.FHIaims.write_aims() 
lattice_vector -0.0000034000000000 6.4845870400000001 6.4845888000000000 
lattice_vector 6.4845944800000002 0.0000045400000000 6.4845932399999997 
lattice_vector 6.4846015799999996 6.4845985600000002 0.0000063400000000 
atom 6.4846040765397026 6.4845986248282479 0.0000448908768532 Cd 
atom 6.4846023765397032 9.7268921448282484 3.2423392908768527 Cd 
atom 9.7269013165397027 6.4846008948282474 3.2423415108768534 Cd 
atom 9.7268996165397024 9.7268944148282461 6.4846359108768530 Cd 
atom 3.2423032865397032 3.2422993448282482 0.0000417208768528 Cd 
atom 3.2423015865397029 6.4845928648282474 3.2423361208768520 Cd 
atom 6.4846005265397020 3.2423016148282473 3.2423383408768536 Cd 
atom 6.4845988265397025 6.4845951348282469 6.4846327408768518 Cd 
atom 4.8634447546677988 4.8563751708194758 4.8563360228516927 Te 
atom 4.8634430509602957 8.1057397576717509 8.1057014916231491 Te 
atom 8.1057419909602935 4.8634485076717509 8.1057037116231498 Te 
atom 8.1057402909602931 8.1057420276717487 11.3479981116231485 Te 
atom 8.1057455409602959 8.1057455176717514 4.8634102616231480 Te 
atom 8.1057438409602955 11.3480390376717502 8.1057046616231485 Te 
atom 11.3480427809602933 8.1057477876717474 8.1057068816231492 Te 
atom 11.3480410809602930 11.3480413076717497 11.3480012816231479 Te 
