#=======================================================
# FHI-aims file: geometry.in.primitive
# Created using the Atomic Simulation Environment (ASE)
# Sun Jul  2 14:04:59 2023

# Additional information:
#  Number of atoms:     2
#=======================================================
lattice_vector -0.0000017000000000 3.2422935200000000 3.2422944000000000 
lattice_vector 3.2422972400000001 0.0000022700000000 3.2422966199999999 
lattice_vector 3.2423007899999998 3.2422992800000001 0.0000031700000000 
atom 0.0000024965397033 0.0000000648282488 0.0000385508768529 Cd
atom 4.8634447509602987 4.8634462376717496 4.8634070916231504 Te
