generated by phonopy                    
   1.00000000000000     
    -0.0000034000000000    6.4845870400000001    6.4845888000000000
     6.4845944800000002    0.0000045400000000    6.4845932399999997
     6.4846015799999996    6.4845985600000002    0.0000063400000000
   Cd   Te
     8     8
Direct
  0.0000027849999995  0.0000031599999986  0.9999972250000013
  0.5000027849999995  0.0000031599999986  0.9999972250000013
  0.0000027849999995  0.5000031599999986  0.9999972250000013
  0.5000027849999995  0.5000031599999986  0.9999972250000013
  0.0000027849999995  0.0000031599999986  0.4999972250000013
  0.5000027849999995  0.0000031599999986  0.4999972250000013
  0.0000027849999995  0.5000031599999986  0.4999972250000013
  0.5000027849999995  0.5000031599999986  0.4999972250000013
  0.3760876571220138  0.3749968400000014  0.3750027749999987
  0.8749972150000005  0.3749968400000014  0.3750027749999987
  0.3749972150000005  0.8749968400000014  0.3750027749999987
  0.8749972150000005  0.8749968400000014  0.3750027749999987
  0.3749972150000005  0.3749968400000014  0.8750027749999987
  0.8749972150000005  0.3749968400000014  0.8750027749999987
  0.3749972150000005  0.8749968400000014  0.8750027749999987
  0.8749972150000005  0.8749968400000014  0.8750027749999987
 
  0.00000000E+00  0.00000000E+00  0.00000000E+00
  0.00000000E+00  0.00000000E+00  0.00000000E+00
  0.00000000E+00  0.00000000E+00  0.00000000E+00
  0.00000000E+00  0.00000000E+00  0.00000000E+00
  0.00000000E+00  0.00000000E+00  0.00000000E+00
  0.00000000E+00  0.00000000E+00  0.00000000E+00
  0.00000000E+00  0.00000000E+00  0.00000000E+00
  0.00000000E+00  0.00000000E+00  0.00000000E+00
  0.00000000E+00  0.00000000E+00  0.00000000E+00
  0.00000000E+00  0.00000000E+00  0.00000000E+00
  0.00000000E+00  0.00000000E+00  0.00000000E+00
  0.00000000E+00  0.00000000E+00  0.00000000E+00
  0.00000000E+00  0.00000000E+00  0.00000000E+00
  0.00000000E+00  0.00000000E+00  0.00000000E+00
  0.00000000E+00  0.00000000E+00  0.00000000E+00
  0.00000000E+00  0.00000000E+00  0.00000000E+00
