generated by phonopy
   1.0
    -0.0000034000000000    6.4845870400000001    6.4845888000000000
     6.4845944800000002    0.0000045400000000    6.4845932399999997
     6.4846015799999996    6.4845985600000002    0.0000063400000000
Cd Te
   8    8
Direct
  0.0000027850000000  0.0000031600000001  0.9999972249999999
  0.5000027849999998  0.0000031600000000  0.9999972250000000
  0.0000027850000000  0.5000031600000001  0.9999972249999998
  0.5000027849999998  0.5000031600000001  0.9999972249999998
  0.0000027849999999  0.0000031600000000  0.4999972250000000
  0.5000027849999998  0.0000031600000000  0.4999972249999999
  0.0000027850000000  0.5000031600000001  0.4999972249999997
  0.5000027849999998  0.5000031600000000  0.4999972249999998
  0.3760876571220131  0.3749968400000000  0.3750027749999997
  0.8749972150000002  0.3749968400000002  0.3750027749999997
  0.3749972150000002  0.8749968400000003  0.3750027749999996
  0.8749972150000001  0.8749968400000002  0.3750027749999994
  0.3749972150000001  0.3749968400000001  0.8750027749999999
  0.8749972150000002  0.3749968400000001  0.8750027749999997
  0.3749972150000000  0.8749968400000003  0.8750027749999996
  0.8749972150000001  0.8749968400000001  0.8750027749999997
