# Cd1Te1   [FCC,FCC,cF8] (STD_PRIM doi:10.
# AFLOW::AIMS BEGIN 
lattice_vector    0.00000000000000   3.30075068358214   3.30075068358214
lattice_vector    3.30075068358214   0.00000000000000   3.30075068358214
lattice_vector    3.30075068358214   3.30075068358214   0.00000000000000
atom_frac    0.00000000000000    0.00000000000000    0.00000000000000  Cd 
atom_frac    0.75000000000000    0.75000000000000    0.75000000000000  Te 
# AFLOW::AIMS END 
