#=======================================================
# FHI-aims file: geometry.in
# Created using the Atomic Simulation Environment (ASE)
# Wed Aug 16 12:47:57 2023
#=======================================================
lattice_vector -0.0000034000000000 6.4845870400000001 6.4845888000000000 
lattice_vector 6.4845944800000002 0.0000045400000000 6.4845932399999997 
lattice_vector 6.4846015799999996 6.4845985600000002 0.0000063400000000 
atom 6.5763099983683571 6.4845986248282488 0.0000448908768529 Cd
atom 6.4846023765397032 9.7268921448282484 3.2423392908768527 Cd
atom 9.7269013165397027 6.4846008948282492 3.2423415108768530 Cd
atom 9.7268996165397024 9.7268944148282479 6.4846359108768521 Cd
atom 3.2423032865397032 3.2422993448282487 0.0000417208768529 Cd
atom 3.2423015865397029 6.4845928648282483 3.2423361208768524 Cd
atom 6.4846005265397029 3.2423016148282486 3.2423383408768527 Cd
atom 6.4845988265397034 6.4845951348282487 6.4846327408768518 Cd
atom 4.8634447509602952 4.8634462376717513 4.8634070916231469 Te
atom 4.8634430509602957 8.1057397576717509 8.1057014916231473 Te
atom 8.1057419909602952 4.8634485076717517 8.1057037116231481 Te
atom 8.1057402909602949 8.1057420276717504 11.3479981116231485 Te
atom 8.1057455409602959 8.1057455176717514 4.8634102616231472 Te
atom 8.1057438409602955 11.3480390376717519 8.1057046616231467 Te
atom 11.3480427809602951 8.1057477876717510 8.1057068816231475 Te
atom 11.3480410809602947 11.3480413076717515 11.3480012816231479 Te
