Cd Te                                   
   1.00000000000000     
    -0.0000341666712267    3.2540172568763701    3.2540186184703055
     3.2540210283252002   -0.0000301872007377    3.2540208513451527
     3.2539921301086672    3.2539905814432597    0.0000031771092987
   Cd   Te
     1     1
Direct
  0.0000024892368616  0.0000032392368597  0.9999975307631400
  0.7499975107631384  0.7499967607631403  0.7500024692368600
 
  0.00000000E+00  0.00000000E+00  0.00000000E+00
  0.00000000E+00  0.00000000E+00  0.00000000E+00
