Cd Te
 1.0000000000000000
    -0.0000017000000000    3.2422935200000000    3.2422944000000000
     3.2422972400000001    0.0000022700000000    3.2422966199999999
     3.2423007899999998    3.2422992800000001    0.0000031700000000
 Cd  Te
   1   1
Cartesian
  0.0000024965397033  0.0000000648282488  0.0000385508768529
  4.8634447509602969  4.8634462376717513  4.8634070916231469
